5.34716534614563
1.000
5.116332917429817 0.0 0.0 
0.0 10.107627123215774 0.0 
-2.190185742845566 0.0 7.117195817436405 
Li Hf N
16 8 16
Cartesian
1.2069977611689264 1.6201446791209655 4.404773576349517 
1.719149413415325 6.6739582407288625 2.712422241086889 
2.5241593826949584 0.34238852217820026 5.737630895738387 
0.40198779188929207 5.396202083786088 1.3795649216980193 
4.260294546427062 0.6839672951469952 2.7673083260196965 
-1.334147371842811 5.737780856754882 4.349887491416709 
1.4371101953631853 8.787768900584362 0.792109678815408 
1.489036979221071 3.7339553389764757 6.325086138620997 
1.766622471158196 2.7545727359738823 1.321787547400754 
1.1595247034260554 7.808386297581769 5.795408270035651 
-0.9945285534211229 1.6862499595246825 4.9537377933177105 
3.9206757280053743 6.740063521132569 2.1634580241186945 
3.569916764913865 9.432116010041579 0.7374501773825218 
-0.6437695903296132 4.378302448433692 6.3797456400538834 
3.886821693124215 3.3607852296246508 3.0498859766583393 
-0.9606745185399646 8.414598791232539 4.067309840778066 
0.44025756998303045 0.5872848711292195 6.537367803736048 
2.485889604601221 5.641098432737107 0.5798280137003576 
-1.7719208563581006 6.832464286151489 6.438663751274073 
4.698068030942352 1.7786507245436012 0.6785320661623321 
1.8431480211386333 5.4955793176898124 5.035708877885247 
1.0829991534456176 0.4417657560819258 2.0814869395511595 
1.115799955946783 0.5850055336947735 0.22443569682461553 
1.8103472186374678 5.638819095302661 6.89276012061179 
4.031769520464413 8.934910558181226 1.8489922834965418 
-1.1056223458801613 3.8810969965733384 5.268203533939864 
-0.33056000658552454 4.3174497372143525 2.122935912541535 
3.2567071811697756 9.37126329882224 4.994259904894871 
1.3010725845103437 0.03594452671705657 4.05976727114467 
1.6250745900739076 5.089758088324944 3.0574285462917357 
-0.7630931669631724 2.155467407764856 3.6621760769471825 
3.689240341547424 7.209280969372743 3.4550197404892233 
4.254178101240384 0.356298656073451 0.17253730848180468 
-1.3280309266561316 5.4101122176813385 6.944658508954601 
2.47049991583963 7.350612850348835 1.4129683382849183 
0.455647258744621 2.296799288740948 5.704227479151488 
2.882475621245714 3.6311228482709996 0.586885736874828 
0.043671553338537006 8.684936409878887 6.530310080561577 
1.5908557134452388 7.808634020131574 3.7939375938130695 
1.3352914611390125 2.754820458523687 3.323258223623336 
After 100 attempts: failed to generate a crystal of spg 107.
After 100 attempts: failed to generate a crystal of spg 208.
